h=9;
w=9;
s=3;
b=[|0,0,2,0,9,0,6,0,5|9,0,3,0,0,0,0,0,0|0,8,0,7,6,0,9,2,3|0,0,9,0,0,0,0,0,0|6,3,1,9,0,7,0,0,4|5,0,8,0,0,0,7,0,6|2,0,7,0,1,0,4,0,9|0,9,4,6,5,2,3,1,0|0,0,6,4,7,9,2,0,8|];
t=[|1,1,0,0,1,1,0,0,1|1,0,1,0,0,1,0,1,1|0,0,1,1,0,1,1,0,1|1,0,1,1,0,0,1,1,0|0,1,1,1,0,1,1,0,0|1,0,0,1,1,0,1,1,0|0,1,1,1,1,0,0,0,1|0,1,0,0,1,0,1,1,1|1,1,0,0,1,1,0,1,0|];
